
        $ From http://www.csplib.org/Problems/prob009/data/helmut.pdf
        $ Problem number 108
        $ Sequence length : 25
        language ESSENCE' 1.0
        letting sizemaster be 371
        letting sizes be sequence(1,2,7,8,20,21,22,24,26,28,30,38,43,46,50,51,64,65,70,90,95,102,109,160,211)
        